; benchmark generated from python API
(set-info :status unknown)
(declare-fun x_days () Int)
(assert
 (>= x_days (- 36584)))
(assert
 (<= x_days 36829))
(assert
 (= x_days 7304))
(assert
 (let ((?x545 (+ x_days 730179)))
 (let ((?x262 (mod ?x545 146097)))
 (let ((?x263 (div ?x262 36524)))
 (let ((?x290 (ite (<= 4 ?x263) 3 ?x263)))
 (let ((?x1066 (- ?x262 (* ?x290 36524))))
 (let ((?x287 (mod ?x1066 1461)))
 (let ((?x288 (div ?x287 365)))
 (let ((?x1060 (ite (<= 4 ?x288) 3 ?x288)))
 (let ((?x1048 (+ (+ (* (div ?x545 146097) 400) (* ?x290 100)) (* (div ?x1066 1461) 4))))
 (let ((?x1050 (+ (+ ?x1048 ?x1060) 1)))
 (let (($x1037 (or (and (= (mod ?x1050 4) 0) (and (distinct (mod ?x1050 100) 0) true)) (= (mod ?x1050 400) 0))))
 (let ((?x1062 (- ?x287 (* ?x1060 365))))
 (let ((?x1039 (ite $x1037 31 31)))
 (let (($x1007 (>= ?x1062 ?x1039)))
 (let ((?x978 (ite $x1007 (+ (- ?x1062 ?x1039) 1) (+ (- ?x1062 (ite $x1037 0 0)) 1))))
 (let ((?x1042 (ite $x1037 60 59)))
 (let (($x1009 (>= ?x1062 ?x1042)))
 (let ((?x1046 (ite $x1037 91 90)))
 (let (($x1012 (>= ?x1062 ?x1046)))
 (let ((?x976 (ite $x1012 (+ (- ?x1062 ?x1046) 1) (ite $x1009 (+ (- ?x1062 ?x1042) 1) ?x978))))
 (let ((?x1027 (ite $x1037 121 120)))
 (let (($x1000 (>= ?x1062 ?x1027)))
 (let ((?x1030 (ite $x1037 152 151)))
 (let (($x994 (>= ?x1062 ?x1030)))
 (let ((?x961 (ite $x994 (+ (- ?x1062 ?x1030) 1) (ite $x1000 (+ (- ?x1062 ?x1027) 1) ?x976))))
 (let ((?x1034 (ite $x1037 182 181)))
 (let (($x996 (>= ?x1062 ?x1034)))
 (let ((?x1015 (ite $x1037 213 212)))
 (let (($x998 (>= ?x1062 ?x1015)))
 (let ((?x968 (ite $x998 (+ (- ?x1062 ?x1015) 1) (ite $x996 (+ (- ?x1062 ?x1034) 1) ?x961))))
 (let ((?x1018 (ite $x1037 244 243)))
 (let (($x1001 (>= ?x1062 ?x1018)))
 (let ((?x1021 (ite $x1037 274 273)))
 (let (($x989 (>= ?x1062 ?x1021)))
 (let ((?x952 (ite $x989 (+ (- ?x1062 ?x1021) 1) (ite $x1001 (+ (- ?x1062 ?x1018) 1) ?x968))))
 (let ((?x1011 (ite $x1037 305 304)))
 (let (($x983 (>= ?x1062 ?x1011)))
 (let ((?x1006 (ite $x1037 335 334)))
 (let (($x985 (>= ?x1062 ?x1006)))
 (let ((?x945 (ite $x985 (+ (- ?x1062 ?x1006) 1) (ite $x983 (+ (- ?x1062 ?x1011) 1) ?x952))))
 (let ((?x993 (ite $x1000 5 (ite $x1012 4 (ite $x1009 3 (ite $x1007 2 1))))))
 (let ((?x1002 (ite $x1001 9 (ite $x998 8 (ite $x996 7 (ite $x994 6 ?x993))))))
 (let ((?x940 (+ (ite $x985 12 (ite $x983 11 (ite $x989 10 ?x1002))) (+ (* 1 12) 0))))
 (let ((?x941 (- ?x940 1)))
 (let ((?x946 (+ (mod ?x941 12) 1)))
 (let ((?x920 (ite (or (= ?x946 4) (= ?x946 6) (= ?x946 9) (= ?x946 11)) 30 31)))
 (let (($x931 (and (= (mod (+ ?x1050 (+ 0 (div ?x941 12))) 4) 0) (and (distinct (mod (+ ?x1050 (+ 0 (div ?x941 12))) 100) 0) true))))
 (let (($x935 (or $x931 (= (mod (+ ?x1050 (+ 0 (div ?x941 12))) 400) 0))))
 (let ((?x921 (ite (= ?x946 2) (ite $x935 29 28) ?x920)))
 (let ((?x912 (ite (> 1 ?x945) 1 (ite (> ?x945 ?x921) ?x921 ?x945))))
 (let ((?x908 (ite (> 1 ?x912) 1 (ite (> ?x912 ?x921) ?x921 ?x912))))
 (let ((?x903 (ite (= 2 ?x946) (ite $x935 31 31) (ite (= 1 ?x946) (ite $x935 0 0) 0))))
 (let ((?x887 (ite (= 4 ?x946) (ite $x935 91 90) (ite (= 3 ?x946) (ite $x935 60 59) ?x903))))
 (let ((?x872 (ite (= 6 ?x946) (ite $x935 152 151) (ite (= 5 ?x946) (ite $x935 121 120) ?x887))))
 (let ((?x878 (ite (= 8 ?x946) (ite $x935 213 212) (ite (= 7 ?x946) (ite $x935 182 181) ?x872))))
 (let ((?x863 (ite (= 10 ?x946) (ite $x935 274 273) (ite (= 9 ?x946) (ite $x935 244 243) ?x878))))
 (let ((?x870 (ite (= 12 ?x946) (ite $x935 335 334) (ite (= 11 ?x946) (ite $x935 305 304) ?x863))))
 (let ((?x914 (+ (* 365 (- (+ ?x1050 (+ 0 (div ?x941 12))) 1)) (div (- (+ ?x1050 (+ 0 (div ?x941 12))) 1) 4))))
 (let ((?x896 (+ (- ?x914 (div (- (+ ?x1050 (+ 0 (div ?x941 12))) 1) 100)) (div (- (+ ?x1050 (+ 0 (div ?x941 12))) 1) 400))))
 (let ((?x854 (+ (+ (- (+ (+ ?x896 ?x870) (- ?x908 1)) 730179) 0) 730179)))
 (let ((?x856 (mod ?x854 146097)))
 (let ((?x858 (div ?x856 36524)))
 (let ((?x846 (ite (<= 4 ?x858) 3 ?x858)))
 (let ((?x840 (- ?x856 (* ?x846 36524))))
 (let ((?x842 (mod ?x840 1461)))
 (let ((?x843 (div ?x842 365)))
 (let ((?x845 (ite (<= 4 ?x843) 3 ?x843)))
 (let ((?x831 (+ (+ (* (div ?x854 146097) 400) (* ?x846 100)) (* (div ?x840 1461) 4))))
 (let ((?x833 (+ (+ ?x831 ?x845) 1)))
 (let (($x820 (or (and (= (mod ?x833 4) 0) (and (distinct (mod ?x833 100) 0) true)) (= (mod ?x833 400) 0))))
 (let ((?x848 (- ?x842 (* ?x845 365))))
 (let ((?x822 (ite $x820 31 31)))
 (let (($x812 (>= ?x848 ?x822)))
 (let ((?x775 (ite $x812 (+ (- ?x848 ?x822) 1) (+ (- ?x848 (ite $x820 0 0)) 1))))
 (let ((?x823 (ite $x820 60 59)))
 (let (($x815 (>= ?x848 ?x823)))
 (let ((?x825 (ite $x820 91 90)))
 (let (($x795 (>= ?x848 ?x825)))
 (let ((?x782 (ite $x795 (+ (- ?x848 ?x825) 1) (ite $x815 (+ (- ?x848 ?x823) 1) ?x775))))
 (let ((?x826 (ite $x820 121 120)))
 (let (($x797 (>= ?x848 ?x826)))
 (let ((?x813 (ite $x820 152 151)))
 (let (($x799 (>= ?x848 ?x813)))
 (let ((?x766 (ite $x799 (+ (- ?x848 ?x813) 1) (ite $x797 (+ (- ?x848 ?x826) 1) ?x782))))
 (let ((?x806 (ite $x820 182 181)))
 (let (($x801 (>= ?x848 ?x806)))
 (let ((?x807 (ite $x820 213 212)))
 (let (($x804 (>= ?x848 ?x807)))
 (let ((?x751 (ite $x804 (+ (- ?x848 ?x807) 1) (ite $x801 (+ (- ?x848 ?x806) 1) ?x766))))
 (let ((?x808 (ite $x820 244 243)))
 (let (($x784 (>= ?x848 ?x808)))
 (let ((?x809 (ite $x820 274 273)))
 (let (($x786 (>= ?x848 ?x809)))
 (let ((?x757 (ite $x786 (+ (- ?x848 ?x809) 1) (ite $x784 (+ (- ?x848 ?x808) 1) ?x751))))
 (let ((?x810 (ite $x820 305 304)))
 (let (($x788 (>= ?x848 ?x810)))
 (let ((?x811 (ite $x820 335 334)))
 (let (($x790 (>= ?x848 ?x811)))
 (let ((?x742 (ite $x790 (+ (- ?x848 ?x811) 1) (ite $x788 (+ (- ?x848 ?x810) 1) ?x757))))
 (let (($x909 (= 0 0)))
 (let (($x719 (= (mod (ite $x909 (+ ?x1050 (+ 0 (div ?x941 12))) ?x833) 400) 0)))
 (let (($x738 (and (distinct (mod (ite $x909 (+ ?x1050 (+ 0 (div ?x941 12))) ?x833) 100) 0) true)))
 (let (($x735 (= (mod (ite $x909 (+ ?x1050 (+ 0 (div ?x941 12))) ?x833) 4) 0)))
 (let (($x720 (or (and $x735 $x738) $x719)))
 (let ((?x798 (ite $x797 5 (ite $x795 4 (ite $x815 3 (ite $x812 2 1))))))
 (let ((?x785 (ite $x784 9 (ite $x804 8 (ite $x801 7 (ite $x799 6 ?x798))))))
 (let ((?x744 (ite $x909 ?x946 (ite $x790 12 (ite $x788 11 (ite $x786 10 ?x785))))))
 (let ((?x726 (ite (= 2 ?x744) (ite $x720 31 31) (ite (= 1 ?x744) (ite $x720 0 0) 0))))
 (let ((?x710 (ite (= 4 ?x744) (ite $x720 91 90) (ite (= 3 ?x744) (ite $x720 60 59) ?x726))))
 (let ((?x703 (ite (= 6 ?x744) (ite $x720 152 151) (ite (= 5 ?x744) (ite $x720 121 120) ?x710))))
 (let ((?x701 (ite (= 8 ?x744) (ite $x720 213 212) (ite (= 7 ?x744) (ite $x720 182 181) ?x703))))
 (let ((?x686 (ite (= 10 ?x744) (ite $x720 274 273) (ite (= 9 ?x744) (ite $x720 244 243) ?x701))))
 (let ((?x693 (ite (= 12 ?x744) (ite $x720 335 334) (ite (= 11 ?x744) (ite $x720 305 304) ?x686))))
 (let ((?x947 (+ ?x1050 (+ 0 (div ?x941 12)))))
 (let ((?x743 (ite $x909 ?x947 ?x833)))
 (let ((?x746 (- ?x743 1)))
 (let ((?x732 (+ (- (+ (* 365 ?x746) (div ?x746 4)) (div ?x746 100)) (div ?x746 400))))
 (= (- (+ (+ ?x732 ?x693) (- (ite $x909 ?x908 ?x742) 1)) 730179) 7669)))))))))))))))))))))))))))))))))))))))))))))))))))))))))))))))))))))))))))))))))))))))))))))))))))))))))))))))))))))))
(assert
 (= x_days 7304))
(check-sat)
